results/mps/FMS_07_makespan_heurTrue.mps
NAME JobShopModel
ROWS
 N  OBJ
 G  c0      
 E  c1      
 E  c2      
 E  c3      
 E  c4      
 E  c5      
 E  c6      
 E  c7      
 E  c8      
 E  c9      
 L  c10     
 L  c11     
 L  c12     
 L  c13     
 L  c14     
 L  c15     
 L  c16     
 L  c17     
 L  c18     
 L  c19     
 L  c20     
 L  c21     
 L  c22     
 L  c23     
 L  c24     
 L  c25     
 L  c26     
 L  c27     
 G  c28     
 G  c29     
 G  c30     
 G  c31     
 G  c32     
 G  c33     
 G  c34     
 G  c35     
 G  c36     
 G  c37     
 G  c38     
 G  c39     
 G  c40     
 G  c41     
 G  c42     
 G  c43     
 G  c44     
 G  c45     
 G  c46     
 G  c47     
 G  c48     
 G  c49     
 G  c50     
 G  c51     
 G  c52     
 G  c53     
 G  c54     
 G  c55     
 G  c56     
 G  c57     
 G  c58     
 G  c59     
 G  c60     
 G  c61     
 G  c62     
 G  c63     
 G  c64     
 G  c65     
 G  c66     
 G  c67     
 G  c68     
 G  c69     
 G  c70     
 G  c71     
 G  c72     
 G  c73     
 G  c74     
 G  c75     
 G  c76     
 G  c77     
 G  c78     
 G  c79     
 G  c80     
 G  c81     
 G  c82     
 G  c83     
 G  c84     
 G  c85     
 G  c86     
 G  c87     
 G  c88     
 G  c89     
 G  c90     
 G  c91     
 G  c92     
 G  c93     
 G  c94     
 G  c95     
 G  c96     
 G  c97     
 G  c98     
 G  c99     
 G  c100    
 G  c101    
 G  c102    
 G  c103    
 G  c104    
 G  c105    
 G  c106    
 G  c107    
 G  c108    
 G  c109    
 G  c110    
 G  c111    
 G  c112    
 G  c113    
 G  c114    
 G  c115    
 G  c116    
 G  c117    
COLUMNS
    MARKER    'MARKER'                 'INTORG'
    y[0,0,3]  c0        -150
    y[0,0,3]  c1        1
    y[0,0,3]  c10       -10000000
    y[0,0,3]  c34       -10000000
    y[0,0,3]  c35       -10000000
    y[0,0,3]  c38       -10000000
    y[0,0,3]  c39       -10000000
    y[0,0,3]  c42       -10000000
    y[0,0,3]  c43       -10000000
    y[0,0,3]  c44       -10000000
    y[0,0,3]  c45       -10000000
    y[0,0,4]  c0        -160
    y[0,0,4]  c1        1
    y[0,0,4]  c11       -10000000
    y[0,0,4]  c36       -10000000
    y[0,0,4]  c37       -10000000
    y[0,0,4]  c40       -10000000
    y[0,0,4]  c41       -10000000
    y[0,1,1]  c2        1
    y[0,1,1]  c12       -10000000
    y[0,1,1]  c28       -130
    y[0,1,1]  c46       -10000000
    y[0,1,1]  c47       -10000000
    y[0,1,1]  c48       -10000000
    y[0,1,1]  c49       -10000000
    y[0,1,1]  c54       -10000000
    y[0,1,1]  c55       -10000000
    y[0,1,1]  c56       -10000000
    y[0,1,1]  c57       -10000000
    y[0,1,3]  c2        1
    y[0,1,3]  c13       -10000000
    y[0,1,3]  c28       -140
    y[0,1,3]  c34       -10000000
    y[0,1,3]  c35       -10000000
    y[0,1,3]  c44       -10000000
    y[0,1,3]  c45       -10000000
    y[0,1,3]  c50       -10000000
    y[0,1,3]  c51       -10000000
    y[0,1,3]  c52       -10000000
    y[0,1,3]  c53       -10000000
    y[0,2,0]  c3        1
    y[0,2,0]  c14       -10000000
    y[0,2,0]  c29       -117
    y[0,2,0]  c60       -10000000
    y[0,2,0]  c61       -10000000
    y[0,2,0]  c62       -10000000
    y[0,2,0]  c63       -10000000
    y[0,2,0]  c98       -480
    y[0,2,1]  c3        1
    y[0,2,1]  c15       -10000000
    y[0,2,1]  c29       -125
    y[0,2,1]  c46       -10000000
    y[0,2,1]  c47       -10000000
    y[0,2,1]  c56       -10000000
    y[0,2,1]  c57       -10000000
    y[0,2,1]  c58       -10000000
    y[0,2,1]  c59       -10000000
    y[0,2,1]  c64       -10000000
    y[0,2,1]  c65       -10000000
    y[0,2,1]  c100      -480
    y[1,0,2]  c0        -65
    y[1,0,2]  c4        1
    y[1,0,2]  c16       -10000000
    y[1,0,2]  c66       -10000000
    y[1,0,2]  c67       -10000000
    y[1,0,2]  c68       -10000000
    y[1,0,2]  c69       -10000000
    y[1,0,2]  c72       -10000000
    y[1,0,2]  c73       -10000000
    y[1,0,2]  c74       -10000000
    y[1,0,2]  c75       -10000000
    y[1,0,2]  c82       -10000000
    y[1,0,2]  c83       -10000000
    y[1,0,4]  c0        -78
    y[1,0,4]  c4        1
    y[1,0,4]  c17       -10000000
    y[1,0,4]  c36       -10000000
    y[1,0,4]  c37       -10000000
    y[1,0,4]  c70       -10000000
    y[1,0,4]  c71       -10000000
    y[1,1,1]  c5        1
    y[1,1,1]  c18       -10000000
    y[1,1,1]  c30       -66
    y[1,1,1]  c48       -10000000
    y[1,1,1]  c49       -10000000
    y[1,1,1]  c58       -10000000
    y[1,1,1]  c59       -10000000
    y[1,1,1]  c80       -10000000
    y[1,1,1]  c81       -10000000
    y[1,1,2]  c5        1
    y[1,1,2]  c19       -10000000
    y[1,1,2]  c30       -55
    y[1,1,2]  c66       -10000000
    y[1,1,2]  c67       -10000000
    y[1,1,2]  c74       -10000000
    y[1,1,2]  c75       -10000000
    y[1,1,2]  c76       -10000000
    y[1,1,2]  c77       -10000000
    y[1,1,2]  c78       -10000000
    y[1,1,2]  c79       -10000000
    y[1,1,2]  c84       -10000000
    y[1,1,2]  c85       -10000000
    y[1,2,0]  c6        1
    y[1,2,0]  c20       -10000000
    y[1,2,0]  c31       -214
    y[1,2,0]  c60       -10000000
    y[1,2,0]  c61       -10000000
    y[1,2,0]  c88       -10000000
    y[1,2,0]  c89       -10000000
    y[1,2,0]  c106      -480
    y[1,2,2]  c6        1
    y[1,2,2]  c21       -10000000
    y[1,2,2]  c31       -150
    y[1,2,2]  c68       -10000000
    y[1,2,2]  c69       -10000000
    y[1,2,2]  c76       -10000000
    y[1,2,2]  c77       -10000000
    y[1,2,2]  c82       -10000000
    y[1,2,2]  c83       -10000000
    y[1,2,2]  c84       -10000000
    y[1,2,2]  c85       -10000000
    y[1,2,2]  c86       -10000000
    y[1,2,2]  c87       -10000000
    y[1,2,2]  c108      -480
    y[2,0,3]  c0        -190
    y[2,0,3]  c7        1
    y[2,0,3]  c22       -10000000
    y[2,0,3]  c38       -10000000
    y[2,0,3]  c39       -10000000
    y[2,0,3]  c50       -10000000
    y[2,0,3]  c51       -10000000
    y[2,0,3]  c90       -10000000
    y[2,0,3]  c91       -10000000
    y[2,0,3]  c92       -10000000
    y[2,0,3]  c93       -10000000
    y[2,0,4]  c0        -100
    y[2,0,4]  c7        1
    y[2,0,4]  c23       -10000000
    y[2,0,4]  c40       -10000000
    y[2,0,4]  c41       -10000000
    y[2,0,4]  c70       -10000000
    y[2,0,4]  c71       -10000000
    y[2,1,2]  c8        1
    y[2,1,2]  c24       -10000000
    y[2,1,2]  c32       -80
    y[2,1,2]  c72       -10000000
    y[2,1,2]  c73       -10000000
    y[2,1,2]  c78       -10000000
    y[2,1,2]  c79       -10000000
    y[2,1,2]  c86       -10000000
    y[2,1,2]  c87       -10000000
    y[2,1,3]  c8        1
    y[2,1,3]  c25       -10000000
    y[2,1,3]  c32       -70
    y[2,1,3]  c42       -10000000
    y[2,1,3]  c43       -10000000
    y[2,1,3]  c52       -10000000
    y[2,1,3]  c53       -10000000
    y[2,1,3]  c90       -10000000
    y[2,1,3]  c91       -10000000
    y[2,1,3]  c92       -10000000
    y[2,1,3]  c93       -10000000
    y[2,2,0]  c9        1
    y[2,2,0]  c26       -10000000
    y[2,2,0]  c33       -87
    y[2,2,0]  c62       -10000000
    y[2,2,0]  c63       -10000000
    y[2,2,0]  c88       -10000000
    y[2,2,0]  c89       -10000000
    y[2,2,0]  c114      -480
    y[2,2,1]  c9        1
    y[2,2,1]  c27       -10000000
    y[2,2,1]  c33       -62
    y[2,2,1]  c54       -10000000
    y[2,2,1]  c55       -10000000
    y[2,2,1]  c64       -10000000
    y[2,2,1]  c65       -10000000
    y[2,2,1]  c80       -10000000
    y[2,2,1]  c81       -10000000
    y[2,2,1]  c116      -480
    x[0,0,0,0]  OBJ       0
    x[0,0,0,1]  c34       10000000
    x[0,0,0,1]  c35       -10000000
    x[0,0,0,2]  OBJ       0
    x[0,0,1,0]  c36       10000000
    x[0,0,1,0]  c37       -10000000
    x[0,0,1,1]  OBJ       0
    x[0,0,1,2]  OBJ       0
    x[0,0,2,0]  c38       10000000
    x[0,0,2,0]  c39       -10000000
    x[0,0,2,0]  c40       10000000
    x[0,0,2,0]  c41       -10000000
    x[0,0,2,1]  c42       10000000
    x[0,0,2,1]  c43       -10000000
    x[0,0,2,2]  OBJ       0
    x[0,1,0,0]  c44       10000000
    x[0,1,0,0]  c45       -10000000
    x[0,1,0,1]  OBJ       0
    x[0,1,0,2]  c46       10000000
    x[0,1,0,2]  c47       -10000000
    x[0,1,1,0]  OBJ       0
    x[0,1,1,1]  c48       10000000
    x[0,1,1,1]  c49       -10000000
    x[0,1,1,2]  OBJ       0
    x[0,1,2,0]  c50       10000000
    x[0,1,2,0]  c51       -10000000
    x[0,1,2,1]  c52       10000000
    x[0,1,2,1]  c53       -10000000
    x[0,1,2,2]  c54       10000000
    x[0,1,2,2]  c55       -10000000
    x[0,2,0,0]  OBJ       0
    x[0,2,0,1]  c56       10000000
    x[0,2,0,1]  c57       -10000000
    x[0,2,0,2]  OBJ       0
    x[0,2,1,0]  OBJ       0
    x[0,2,1,1]  c58       10000000
    x[0,2,1,1]  c59       -10000000
    x[0,2,1,2]  c60       10000000
    x[0,2,1,2]  c61       -10000000
    x[0,2,2,0]  OBJ       0
    x[0,2,2,1]  OBJ       0
    x[0,2,2,2]  c62       10000000
    x[0,2,2,2]  c63       -10000000
    x[0,2,2,2]  c64       10000000
    x[0,2,2,2]  c65       -10000000
    x[1,0,0,0]  OBJ       0
    x[1,0,0,1]  OBJ       0
    x[1,0,0,2]  OBJ       0
    x[1,0,1,0]  OBJ       0
    x[1,0,1,1]  c66       10000000
    x[1,0,1,1]  c67       -10000000
    x[1,0,1,2]  c68       10000000
    x[1,0,1,2]  c69       -10000000
    x[1,0,2,0]  c70       10000000
    x[1,0,2,0]  c71       -10000000
    x[1,0,2,1]  c72       10000000
    x[1,0,2,1]  c73       -10000000
    x[1,0,2,2]  OBJ       0
    x[1,1,0,0]  OBJ       0
    x[1,1,0,1]  OBJ       0
    x[1,1,0,2]  OBJ       0
    x[1,1,1,0]  c74       10000000
    x[1,1,1,0]  c75       -10000000
    x[1,1,1,1]  OBJ       0
    x[1,1,1,2]  c76       10000000
    x[1,1,1,2]  c77       -10000000
    x[1,1,2,0]  OBJ       0
    x[1,1,2,1]  c78       10000000
    x[1,1,2,1]  c79       -10000000
    x[1,1,2,2]  c80       10000000
    x[1,1,2,2]  c81       -10000000
    x[1,2,0,0]  OBJ       0
    x[1,2,0,1]  OBJ       0
    x[1,2,0,2]  OBJ       0
    x[1,2,1,0]  c82       10000000
    x[1,2,1,0]  c83       -10000000
    x[1,2,1,1]  c84       10000000
    x[1,2,1,1]  c85       -10000000
    x[1,2,1,2]  OBJ       0
    x[1,2,2,0]  OBJ       0
    x[1,2,2,1]  c86       10000000
    x[1,2,2,1]  c87       -10000000
    x[1,2,2,2]  c88       10000000
    x[1,2,2,2]  c89       -10000000
    x[2,0,0,0]  OBJ       0
    x[2,0,0,1]  OBJ       0
    x[2,0,0,2]  OBJ       0
    x[2,0,1,0]  OBJ       0
    x[2,0,1,1]  OBJ       0
    x[2,0,1,2]  OBJ       0
    x[2,0,2,0]  OBJ       0
    x[2,0,2,1]  c90       10000000
    x[2,0,2,1]  c91       -10000000
    x[2,0,2,2]  OBJ       0
    x[2,1,0,0]  OBJ       0
    x[2,1,0,1]  OBJ       0
    x[2,1,0,2]  OBJ       0
    x[2,1,1,0]  OBJ       0
    x[2,1,1,1]  OBJ       0
    x[2,1,1,2]  OBJ       0
    x[2,1,2,0]  c92       10000000
    x[2,1,2,0]  c93       -10000000
    x[2,1,2,1]  OBJ       0
    x[2,1,2,2]  OBJ       0
    x[2,2,0,0]  OBJ       0
    x[2,2,0,1]  OBJ       0
    x[2,2,0,2]  OBJ       0
    x[2,2,1,0]  OBJ       0
    x[2,2,1,1]  OBJ       0
    x[2,2,1,2]  OBJ       0
    x[2,2,2,0]  OBJ       0
    x[2,2,2,1]  OBJ       0
    x[2,2,2,2]  OBJ       0
    s[0,0,3]  c0        -1
    s[0,0,3]  c10       1
    s[0,0,3]  c28       1
    s[0,0,3]  c34       -1
    s[0,0,3]  c35       1
    s[0,0,3]  c38       -1
    s[0,0,3]  c39       1
    s[0,0,3]  c42       -1
    s[0,0,3]  c43       1
    s[0,0,3]  c44       1
    s[0,0,3]  c45       -1
    s[0,0,3]  c94       1
    s[0,0,4]  c0        -1
    s[0,0,4]  c11       1
    s[0,0,4]  c28       1
    s[0,0,4]  c36       -1
    s[0,0,4]  c37       1
    s[0,0,4]  c40       -1
    s[0,0,4]  c41       1
    s[0,0,4]  c95       1
    s[0,1,1]  c12       1
    s[0,1,1]  c28       -1
    s[0,1,1]  c29       1
    s[0,1,1]  c46       -1
    s[0,1,1]  c47       1
    s[0,1,1]  c48       -1
    s[0,1,1]  c49       1
    s[0,1,1]  c54       -1
    s[0,1,1]  c55       1
    s[0,1,1]  c56       1
    s[0,1,1]  c57       -1
    s[0,1,1]  c96       1
    s[0,1,3]  c13       1
    s[0,1,3]  c28       -1
    s[0,1,3]  c29       1
    s[0,1,3]  c34       1
    s[0,1,3]  c35       -1
    s[0,1,3]  c44       -1
    s[0,1,3]  c45       1
    s[0,1,3]  c50       -1
    s[0,1,3]  c51       1
    s[0,1,3]  c52       -1
    s[0,1,3]  c53       1
    s[0,1,3]  c97       1
    s[0,2,0]  c14       1
    s[0,2,0]  c29       -1
    s[0,2,0]  c60       -1
    s[0,2,0]  c61       1
    s[0,2,0]  c62       -1
    s[0,2,0]  c63       1
    s[0,2,0]  c98       1
    s[0,2,0]  c99       1
    s[0,2,1]  c15       1
    s[0,2,1]  c29       -1
    s[0,2,1]  c46       1
    s[0,2,1]  c47       -1
    s[0,2,1]  c56       -1
    s[0,2,1]  c57       1
    s[0,2,1]  c58       -1
    s[0,2,1]  c59       1
    s[0,2,1]  c64       -1
    s[0,2,1]  c65       1
    s[0,2,1]  c100      1
    s[0,2,1]  c101      1
    s[1,0,2]  c0        -1
    s[1,0,2]  c16       1
    s[1,0,2]  c30       1
    s[1,0,2]  c66       -1
    s[1,0,2]  c67       1
    s[1,0,2]  c68       -1
    s[1,0,2]  c69       1
    s[1,0,2]  c72       -1
    s[1,0,2]  c73       1
    s[1,0,2]  c74       1
    s[1,0,2]  c75       -1
    s[1,0,2]  c82       1
    s[1,0,2]  c83       -1
    s[1,0,2]  c102      1
    s[1,0,4]  c0        -1
    s[1,0,4]  c17       1
    s[1,0,4]  c30       1
    s[1,0,4]  c36       1
    s[1,0,4]  c37       -1
    s[1,0,4]  c70       -1
    s[1,0,4]  c71       1
    s[1,0,4]  c103      1
    s[1,1,1]  c18       1
    s[1,1,1]  c30       -1
    s[1,1,1]  c31       1
    s[1,1,1]  c48       1
    s[1,1,1]  c49       -1
    s[1,1,1]  c58       1
    s[1,1,1]  c59       -1
    s[1,1,1]  c80       -1
    s[1,1,1]  c81       1
    s[1,1,1]  c104      1
    s[1,1,2]  c19       1
    s[1,1,2]  c30       -1
    s[1,1,2]  c31       1
    s[1,1,2]  c66       1
    s[1,1,2]  c67       -1
    s[1,1,2]  c74       -1
    s[1,1,2]  c75       1
    s[1,1,2]  c76       -1
    s[1,1,2]  c77       1
    s[1,1,2]  c78       -1
    s[1,1,2]  c79       1
    s[1,1,2]  c84       1
    s[1,1,2]  c85       -1
    s[1,1,2]  c105      1
    s[1,2,0]  c20       1
    s[1,2,0]  c31       -1
    s[1,2,0]  c60       1
    s[1,2,0]  c61       -1
    s[1,2,0]  c88       -1
    s[1,2,0]  c89       1
    s[1,2,0]  c106      1
    s[1,2,0]  c107      1
    s[1,2,2]  c21       1
    s[1,2,2]  c31       -1
    s[1,2,2]  c68       1
    s[1,2,2]  c69       -1
    s[1,2,2]  c76       1
    s[1,2,2]  c77       -1
    s[1,2,2]  c82       -1
    s[1,2,2]  c83       1
    s[1,2,2]  c84       -1
    s[1,2,2]  c85       1
    s[1,2,2]  c86       -1
    s[1,2,2]  c87       1
    s[1,2,2]  c108      1
    s[1,2,2]  c109      1
    s[2,0,3]  c0        -1
    s[2,0,3]  c22       1
    s[2,0,3]  c32       1
    s[2,0,3]  c38       1
    s[2,0,3]  c39       -1
    s[2,0,3]  c50       1
    s[2,0,3]  c51       -1
    s[2,0,3]  c90       -1
    s[2,0,3]  c91       1
    s[2,0,3]  c92       1
    s[2,0,3]  c93       -1
    s[2,0,3]  c110      1
    s[2,0,4]  c0        -1
    s[2,0,4]  c23       1
    s[2,0,4]  c32       1
    s[2,0,4]  c40       1
    s[2,0,4]  c41       -1
    s[2,0,4]  c70       1
    s[2,0,4]  c71       -1
    s[2,0,4]  c111      1
    s[2,1,2]  c24       1
    s[2,1,2]  c32       -1
    s[2,1,2]  c33       1
    s[2,1,2]  c72       1
    s[2,1,2]  c73       -1
    s[2,1,2]  c78       1
    s[2,1,2]  c79       -1
    s[2,1,2]  c86       1
    s[2,1,2]  c87       -1
    s[2,1,2]  c112      1
    s[2,1,3]  c25       1
    s[2,1,3]  c32       -1
    s[2,1,3]  c33       1
    s[2,1,3]  c42       1
    s[2,1,3]  c43       -1
    s[2,1,3]  c52       1
    s[2,1,3]  c53       -1
    s[2,1,3]  c90       1
    s[2,1,3]  c91       -1
    s[2,1,3]  c92       -1
    s[2,1,3]  c93       1
    s[2,1,3]  c113      1
    s[2,2,0]  c26       1
    s[2,2,0]  c33       -1
    s[2,2,0]  c62       1
    s[2,2,0]  c63       -1
    s[2,2,0]  c88       1
    s[2,2,0]  c89       -1
    s[2,2,0]  c114      1
    s[2,2,0]  c115      1
    s[2,2,1]  c27       1
    s[2,2,1]  c33       -1
    s[2,2,1]  c54       1
    s[2,2,1]  c55       -1
    s[2,2,1]  c64       1
    s[2,2,1]  c65       -1
    s[2,2,1]  c80       1
    s[2,2,1]  c81       -1
    s[2,2,1]  c116      1
    s[2,2,1]  c117      1
    Z_FO      OBJ       1
    Z_FO      c0        1
    MARKER    'MARKER'                 'INTEND'
RHS
    RHS1      c1        1
    RHS1      c2        1
    RHS1      c3        1
    RHS1      c4        1
    RHS1      c5        1
    RHS1      c6        1
    RHS1      c7        1
    RHS1      c8        1
    RHS1      c9        1
    RHS1      c34       -19999637
    RHS1      c35       -29999667
    RHS1      c36       -19999630
    RHS1      c37       -29999544
    RHS1      c38       -19999592
    RHS1      c39       -29999596
    RHS1      c40       -19999140
    RHS1      c41       -29999639
    RHS1      c42       -19999538
    RHS1      c43       -29999414
    RHS1      c44       -19999667
    RHS1      c45       -29999637
    RHS1      c46       -19999237
    RHS1      c47       -29999759
    RHS1      c48       -19999669
    RHS1      c49       -29999858
    RHS1      c50       -19999666
    RHS1      c51       -29999138
    RHS1      c52       -19999362
    RHS1      c53       -29999265
    RHS1      c54       -19999663
    RHS1      c55       -29999626
    RHS1      c56       -19999759
    RHS1      c57       -29999237
    RHS1      c58       -19999231
    RHS1      c59       -29999289
    RHS1      c60       -19999659
    RHS1      c61       -29999585
    RHS1      c62       -19999503
    RHS1      c63       -29999789
    RHS1      c64       -19999759
    RHS1      c65       -29999883
    RHS1      c66       -19999115
    RHS1      c67       -29999615
    RHS1      c68       -19999794
    RHS1      c69       -29998825
    RHS1      c70       -19999670
    RHS1      c71       -29999648
    RHS1      c72       -19999559
    RHS1      c73       -29999765
    RHS1      c74       -19999615
    RHS1      c75       -29999115
    RHS1      c76       -19999601
    RHS1      c77       -29999637
    RHS1      c78       -19999390
    RHS1      c79       -29999105
    RHS1      c80       -19999694
    RHS1      c81       -29999683
    RHS1      c82       -19998825
    RHS1      c83       -29999794
    RHS1      c84       -19999637
    RHS1      c85       -29999601
    RHS1      c86       -19999770
    RHS1      c87       -29999284
    RHS1      c88       -19998721
    RHS1      c89       -29999349
    RHS1      c90       -19999638
    RHS1      c91       -29999805
    RHS1      c92       -19999805
    RHS1      c93       -29999638
BOUNDS
 BV BND1      y[0,0,3]
 BV BND1      y[0,0,4]
 BV BND1      y[0,1,1]
 BV BND1      y[0,1,3]
 BV BND1      y[0,2,0]
 BV BND1      y[0,2,1]
 BV BND1      y[1,0,2]
 BV BND1      y[1,0,4]
 BV BND1      y[1,1,1]
 BV BND1      y[1,1,2]
 BV BND1      y[1,2,0]
 BV BND1      y[1,2,2]
 BV BND1      y[2,0,3]
 BV BND1      y[2,0,4]
 BV BND1      y[2,1,2]
 BV BND1      y[2,1,3]
 BV BND1      y[2,2,0]
 BV BND1      y[2,2,1]
 BV BND1      x[0,0,0,0]
 BV BND1      x[0,0,0,1]
 BV BND1      x[0,0,0,2]
 BV BND1      x[0,0,1,0]
 BV BND1      x[0,0,1,1]
 BV BND1      x[0,0,1,2]
 BV BND1      x[0,0,2,0]
 BV BND1      x[0,0,2,1]
 BV BND1      x[0,0,2,2]
 BV BND1      x[0,1,0,0]
 BV BND1      x[0,1,0,1]
 BV BND1      x[0,1,0,2]
 BV BND1      x[0,1,1,0]
 BV BND1      x[0,1,1,1]
 BV BND1      x[0,1,1,2]
 BV BND1      x[0,1,2,0]
 BV BND1      x[0,1,2,1]
 BV BND1      x[0,1,2,2]
 BV BND1      x[0,2,0,0]
 BV BND1      x[0,2,0,1]
 BV BND1      x[0,2,0,2]
 BV BND1      x[0,2,1,0]
 BV BND1      x[0,2,1,1]
 BV BND1      x[0,2,1,2]
 BV BND1      x[0,2,2,0]
 BV BND1      x[0,2,2,1]
 BV BND1      x[0,2,2,2]
 BV BND1      x[1,0,0,0]
 BV BND1      x[1,0,0,1]
 BV BND1      x[1,0,0,2]
 BV BND1      x[1,0,1,0]
 BV BND1      x[1,0,1,1]
 BV BND1      x[1,0,1,2]
 BV BND1      x[1,0,2,0]
 BV BND1      x[1,0,2,1]
 BV BND1      x[1,0,2,2]
 BV BND1      x[1,1,0,0]
 BV BND1      x[1,1,0,1]
 BV BND1      x[1,1,0,2]
 BV BND1      x[1,1,1,0]
 BV BND1      x[1,1,1,1]
 BV BND1      x[1,1,1,2]
 BV BND1      x[1,1,2,0]
 BV BND1      x[1,1,2,1]
 BV BND1      x[1,1,2,2]
 BV BND1      x[1,2,0,0]
 BV BND1      x[1,2,0,1]
 BV BND1      x[1,2,0,2]
 BV BND1      x[1,2,1,0]
 BV BND1      x[1,2,1,1]
 BV BND1      x[1,2,1,2]
 BV BND1      x[1,2,2,0]
 BV BND1      x[1,2,2,1]
 BV BND1      x[1,2,2,2]
 BV BND1      x[2,0,0,0]
 BV BND1      x[2,0,0,1]
 BV BND1      x[2,0,0,2]
 BV BND1      x[2,0,1,0]
 BV BND1      x[2,0,1,1]
 BV BND1      x[2,0,1,2]
 BV BND1      x[2,0,2,0]
 BV BND1      x[2,0,2,1]
 BV BND1      x[2,0,2,2]
 BV BND1      x[2,1,0,0]
 BV BND1      x[2,1,0,1]
 BV BND1      x[2,1,0,2]
 BV BND1      x[2,1,1,0]
 BV BND1      x[2,1,1,1]
 BV BND1      x[2,1,1,2]
 BV BND1      x[2,1,2,0]
 BV BND1      x[2,1,2,1]
 BV BND1      x[2,1,2,2]
 BV BND1      x[2,2,0,0]
 BV BND1      x[2,2,0,1]
 BV BND1      x[2,2,0,2]
 BV BND1      x[2,2,1,0]
 BV BND1      x[2,2,1,1]
 BV BND1      x[2,2,1,2]
 BV BND1      x[2,2,2,0]
 BV BND1      x[2,2,2,1]
 BV BND1      x[2,2,2,2]
 LI BND1      s[0,0,3]  0
 LI BND1      s[0,0,4]  0
 LI BND1      s[0,1,1]  0
 LI BND1      s[0,1,3]  0
 LI BND1      s[0,2,0]  0
 LI BND1      s[0,2,1]  0
 LI BND1      s[1,0,2]  0
 LI BND1      s[1,0,4]  0
 LI BND1      s[1,1,1]  0
 LI BND1      s[1,1,2]  0
 LI BND1      s[1,2,0]  0
 LI BND1      s[1,2,2]  0
 LI BND1      s[2,0,3]  0
 LI BND1      s[2,0,4]  0
 LI BND1      s[2,1,2]  0
 LI BND1      s[2,1,3]  0
 LI BND1      s[2,2,0]  0
 LI BND1      s[2,2,1]  0
 LI BND1      Z_FO      0
ENDATA
