results/log/FMS_07_makespan_heurTrue.log

Gurobi 10.0.1 (win64) logging started Sun Oct  8 06:17:46 2023

Set parameter LogFile to value "./results//log/FMS_07_makespan_heurTrue.log"
Gurobi Optimizer version 10.0.1 build v10.0.1rc0 (win64)

CPU model: AMD Ryzen 7 3700X 8-Core Processor, instruction set [SSE2|AVX|AVX2]
Thread count: 8 physical cores, 16 logical processors, using up to 16 threads

Optimize a model with 118 rows, 118 columns and 433 nonzeros
Model fingerprint: 0x68887a5b
Variable types: 0 continuous, 118 integer (99 binary)
Coefficient statistics:
  Matrix range     [1e+00, 1e+07]
  Objective range  [1e+00, 1e+00]
  Bounds range     [1e+00, 1e+00]
  RHS range        [1e+00, 3e+07]

User MIP start did not produce a new incumbent solution
User MIP start violates constraint initial_start_time_job0_stage0_machine0_constraint by 420.000000000

Presolve removed 28 rows and 63 columns
Presolve time: 0.01s
Presolved: 90 rows, 55 columns, 378 nonzeros
Variable types: 0 continuous, 55 integer (37 binary)
Found heuristic solution: objective 3514.0000000

Root relaxation: objective 2.339000e+03, 25 iterations, 0.00 seconds (0.00 work units)

    Nodes    |    Current Node    |     Objective Bounds      |     Work
 Expl Unexpl |  Obj  Depth IntInf | Incumbent    BestBd   Gap | It/Node Time

     0     0 2339.00000    0    8 3514.00000 2339.00000  33.4%     -    0s
Another try with MIP start
H    0     0                    3212.0000000 2339.00000  27.2%     -    0s
H    0     0                    3158.0000000 2358.84300  25.3%     -    0s
H    0     0                    3154.0000000 2358.84300  25.2%     -    0s
H    0     0                    3032.0000000 2358.84300  22.2%     -    0s
     0     0 2362.00000    0    8 3032.00000 2362.00000  22.1%     -    0s
     0     0 2362.00000    0   11 3032.00000 2362.00000  22.1%     -    0s
     0     0 2362.00000    0   14 3032.00000 2362.00000  22.1%     -    0s
     0     0 2362.00000    0   12 3032.00000 2362.00000  22.1%     -    0s
     0     0 2373.00000    0   12 3032.00000 2373.00000  21.7%     -    0s
     0     0 2373.00000    0   10 3032.00000 2373.00000  21.7%     -    0s
     0     0 2373.00000    0    7 3032.00000 2373.00000  21.7%     -    0s
H    0     0                    2988.0000000 2373.00000  20.6%     -    0s
H    0     0                    2968.0000000 2373.00000  20.0%     -    0s
     0     0 2380.52342    0    8 2968.00000 2380.52342  19.8%     -    0s
     0     0 2383.00000    0    8 2968.00000 2383.00000  19.7%     -    0s
H    0     0                    2932.0000000 2383.00000  18.7%     -    0s
     0     0 2383.00000    0    8 2932.00000 2383.00000  18.7%     -    0s
     0     0 2386.47181    0   10 2932.00000 2386.47181  18.6%     -    0s
     0     0 2393.00000    0   10 2932.00000 2393.00000  18.4%     -    0s
     0     0 2398.00000    0   10 2932.00000 2398.00000  18.2%     -    0s
     0     0 2398.00000    0   10 2932.00000 2398.00000  18.2%     -    0s
     0     2 2398.00000    0   10 2932.00000 2398.00000  18.2%     -    0s

Cutting planes:
  Learned: 10
  Gomory: 2
  Cover: 1
  Implied bound: 3
  MIR: 4
  Inf proof: 1

Explored 400 nodes (1436 simplex iterations) in 0.52 seconds (0.02 work units)
Thread count was 16 (of 16 available processors)

Solution count 8: 2932 2968 2988 ... 3514

Optimal solution found (tolerance 1.00e-04)
Best objective 2.932000000000e+03, best bound 2.932000000000e+03, gap 0.0000%
Warning: constraint name "precedence between 0,0 to 0,1 if x_[0,0,0,1,3]=0, i.e. 0,1 before 0,0" has a space
Warning: constraint name "precedence between 0,0 to 0,1 if x_[0,0,0,1,3]=0, i.e. 0,1 before 0,0" has a space
Warning: default constraint names used to write mps file
